100
1000
395
394
394
393
391
390
389
386
386
384
383
377
376
371
369
368
367
367
366
365
362
362
361
360
359
359
359
355
353
350
350
349
349
349
345
343
342
342
340
340
339
338
336
335
332
329
328
327
327
327
323
321
320
316
315
312
312
311
311
310
310
309
308
306
305
303
303
302
302
297
297
296
295
294
294
292
292
292
288
287
287
287
284
282
282
282
282
282
281
278
278
277
273
272
272
270
270
269
268
268
